
Gurobi 9.5.2 (win64) logging started Tue Mar 28 01:17:06 2023

Set parameter LogFile to value "2023-03-27_20hr-25min-09sec/Nodes40_Arcs55_LocNodes30/Formulation-1Instance-4.log"
Set parameter TimeLimit to value 600
Set parameter IntFeasTol to value 1e-09
Set parameter DualReductions to value 0
Set parameter NonConvex to value 2
Gurobi Optimizer version 9.5.2 build v9.5.2rc0 (win64)
Thread count: 4 physical cores, 8 logical processors, using up to 8 threads
Optimize a model with 166 rows, 290 columns and 610 nonzeros
Model fingerprint: 0x91edbf14
Model has 30 quadratic objective terms
Model has 95 SOS constraints
Variable types: 260 continuous, 30 integer (30 binary)
Coefficient statistics:
  Matrix range     [1e-02, 2e+02]
  Objective range  [3e+00, 2e+02]
  QObjective range [2e+00, 2e+00]
  Bounds range     [1e+00, 1e+00]
  RHS range        [3e-02, 3e+03]
Presolve removed 9 rows and 13 columns
Presolve time: 0.00s
Presolved: 216 rows, 308 columns, 727 nonzeros
Presolved model has 87 SOS constraint(s)
Presolved model has 29 bilinear constraint(s)
Variable types: 278 continuous, 30 integer (30 binary)

Root relaxation: unbounded, 140 iterations, 0.00 seconds (0.00 work units)

    Nodes    |    Current Node    |     Objective Bounds      |     Work
 Expl Unexpl |  Obj  Depth IntInf | Incumbent    BestBd   Gap | It/Node Time

     0     0  postponed    0               -          -      -     -    0s
     0     0  postponed    0               -          -      -     -    0s
Exploring 100 nodes in MinRel heuristic
No solution found by MinRel heuristic
     0     2  postponed    0               -          -      -     -    0s
Exploring 10000 nodes in MinRel heuristic
H 2118   811                    -13862.28761          -      -  26.8    2s
Feasible solution found by MinRel heuristic at node 1926
 10116  1631 infeasible   56      -13862.288          -      -  19.1    5s
 23564  2503 infeasible   52      -13862.288          -      -  15.1   10s
 34557  2929  postponed   53      -13862.288          -      -  15.2   15s
 46612  3304  postponed   54      -13862.288          -      -  15.1   20s
 58493  3571  postponed   51      -13862.288          -      -  15.3   25s
 69260  3627 infeasible   56      -13862.288          -      -  15.3   30s
 81105  3604  postponed   48      -13862.288          -      -  15.5   35s
 95229  3576  postponed   56      -13862.288          -      -  15.9   40s
 106426  3531  postponed   52      -13862.288          -      -  15.8   45s
 119544  3464  postponed   54      -13862.288          -      -  15.8   50s
 131351  3450 infeasible   54      -13862.288          -      -  15.6   55s
 144654  3381 infeasible   53      -13862.288          -      -  15.4   60s
 156883  3372  postponed   55      -13862.288          -      -  15.3   65s
 171617  3438 infeasible   56      -13862.288          -      -  15.3   70s
 182778  3370 infeasible   49      -13862.288          -      -  15.1   75s
 195102  3323 infeasible   62      -13862.288          -      -  15.0   80s
 208017  3312 infeasible   53      -13862.288          -      -  14.9   85s
 218901  3298  postponed   55      -13862.288          -      -  14.8   90s
 231183  3249  postponed   53      -13862.288          -      -  14.7   95s
 242997  3202  postponed   54      -13862.288          -      -  14.7  100s
 258571  3437 infeasible   51      -13862.288          -      -  14.6  105s
 269149  3471  postponed   51      -13862.288          -      -  14.7  110s
 280579  3463  postponed   48      -13862.288          -      -  14.8  115s
 292391  3485  postponed   55      -13862.288          -      -  14.8  120s
 303152  3382 infeasible   47      -13862.288          -      -  14.8  125s
 314073  3404  postponed   48      -13862.288          -      -  14.9  130s
 326108  3351  postponed   55      -13862.288          -      -  14.8  135s
 337688  3284 infeasible   52      -13862.288          -      -  14.8  140s
 349313  3187 infeasible   56      -13862.288          -      -  14.8  145s
 359594  3212 infeasible   56      -13862.288          -      -  14.7  150s
 371436  3201  postponed   45      -13862.288          -      -  14.7  155s
 381180  3224  postponed   50      -13862.288          -      -  14.7  160s
 392673  3204 infeasible   53      -13862.288          -      -  14.6  165s
 403489  3146 infeasible   43      -13862.288          -      -  14.6  170s
 416425  3144 infeasible   40      -13862.288          -      -  14.5  175s
 428533  3084 infeasible   50      -13862.288          -      -  14.4  180s
 440351  3099  postponed   46      -13862.288          -      -  14.3  185s
 451579  3025 infeasible   51      -13862.288          -      -  14.3  190s
 462138  3044  postponed   55      -13862.288          -      -  14.3  195s
 474818  3266  postponed   50      -13862.288          -      -  14.2  200s
 488106  3436 infeasible   57      -13862.288          -      -  14.1  205s
 498851  3518 infeasible   53      -13862.288          -      -  14.0  210s
 509914  3478 infeasible   51      -13862.288          -      -  13.8  215s
 522948  3355 infeasible   57      -13862.288          -      -  13.7  220s
 535728  3472 infeasible   57      -13862.288          -      -  13.5  225s
 548826  3388 infeasible   57      -13862.288          -      -  13.4  230s
 562360  3360  postponed   49      -13862.288          -      -  13.2  235s
 575672  3265 infeasible   61      -13862.288          -      -  13.0  240s
 589394  3234  postponed   52      -13862.288          -      -  12.9  245s
 603933  3333  postponed   55      -13862.288          -      -  12.8  250s
 616880  3364  postponed   49      -13862.288          -      -  12.7  255s
 629903  3375  postponed   55      -13862.288          -      -  12.6  260s
 641918  3323  postponed   55      -13862.288          -      -  12.4  265s
 656219  3286  postponed   51      -13862.288          -      -  12.3  270s
 669303  3225  postponed   55      -13862.288          -      -  12.2  275s
 686038  3160 infeasible   56      -13862.288          -      -  12.0  280s
 700788  3139 infeasible   50      -13862.288          -      -  11.9  285s
 714402  3013 infeasible   49      -13862.288          -      -  11.9  290s
 728289  2967 infeasible   56      -13862.288          -      -  11.8  295s
 741933  2956  postponed   55      -13862.288          -      -  11.8  300s
 758144  2960  postponed   42      -13862.288          -      -  11.8  305s
 772218  3049  postponed   46      -13862.288          -      -  11.7  310s
 784522  3046  postponed   54      -13862.288          -      -  11.7  315s
 798486  2965  postponed   55      -13862.288          -      -  11.7  320s
 810213  2855 infeasible   57      -13862.288          -      -  11.7  325s
 820420  2845  postponed   54      -13862.288          -      -  11.7  330s
 833206  2930  postponed   56      -13862.288          -      -  11.7  335s
 845987  3024 infeasible   56      -13862.288          -      -  11.6  340s
 858093  3039  postponed   54      -13862.288          -      -  11.6  345s
 871685  3039  postponed   51      -13862.288          -      -  11.6  350s
 884803  2948 infeasible   53      -13862.288          -      -  11.5  355s
 898886  2938  postponed   55      -13862.288          -      -  11.4  360s
 914347  2952 infeasible   53      -13862.288          -      -  11.3  365s
 929039  2984  postponed   55      -13862.288          -      -  11.2  370s
 944839  3039  postponed   52      -13862.288          -      -  11.1  375s
 959369  2925 infeasible   57      -13862.288          -      -  11.0  380s
 976919  2842  postponed   55      -13862.288          -      -  10.9  385s
 990275  2915  postponed   54      -13862.288          -      -  10.8  390s
 1004011  2852  postponed   55      -13862.288          -      -  10.8  395s
 1018700  2807  postponed   56      -13862.288          -      -  10.7  400s
 1032711  2794  postponed   55      -13862.288          -      -  10.7  405s
 1046131  2852  postponed   56      -13862.288          -      -  10.6  410s
 1058503  2837  postponed   49      -13862.288          -      -  10.6  415s
 1071480  2771  postponed   51      -13862.288          -      -  10.6  420s
 1083135  2747  postponed   49      -13862.288          -      -  10.6  425s
 1097675  2760  postponed   56      -13862.288          -      -  10.6  430s
 1111022  2683  postponed   47      -13862.288          -      -  10.6  435s
 1125927  2862  postponed   44      -13862.288          -      -  10.5  440s
 1140983  3286 infeasible   55      -13862.288          -      -  10.5  445s
 1155549  3692  postponed   52      -13862.288          -      -  10.5  450s
 1170360  3908  postponed   57      -13862.288          -      -  10.4  455s
 1185254  4055 infeasible   59      -13862.288          -      -  10.4  460s
 1201090  4109  postponed   55      -13862.288          -      -  10.3  465s
 1220714  3971  postponed   51      -13862.288          -      -  10.2  470s
 1237023  3939  postponed   55      -13862.288          -      -  10.2  475s
 1252857  3873  postponed   53      -13862.288          -      -  10.1  480s
 1272820  3873 infeasible   59      -13862.288          -      -  10.1  485s
 1288812  3827 infeasible   59      -13862.288          -      -  10.0  490s
 1304561  3804  postponed   53      -13862.288          -      -  10.0  495s
 1320134  3755  postponed   44      -13862.288          -      -   9.9  500s
 1335817  3662  postponed   55      -13862.288          -      -   9.9  505s
 1353320  3756 infeasible   52      -13862.288          -      -   9.9  510s
 1366921  3918  postponed   54      -13862.288          -      -   9.8  515s
 1381002  4241 infeasible   56      -13862.288          -      -   9.8  520s
 1396142  4295  postponed   55      -13862.288          -      -   9.8  525s
 1410712  4182 infeasible   45      -13862.288          -      -   9.7  530s
 1425280  4054 infeasible   52      -13862.288          -      -   9.7  535s
 1439551  3965 infeasible   56      -13862.288          -      -   9.7  540s
 1457939  3836 infeasible   56      -13862.288          -      -   9.6  545s
 1472559  3868 infeasible   52      -13862.288          -      -   9.6  550s
 1486332  3961  postponed   50      -13862.288          -      -   9.6  555s
 1499340  4138 infeasible   56      -13862.288          -      -   9.6  560s
 1513583  4088  postponed   51      -13862.288          -      -   9.5  565s
 1525553  4017  postponed   50      -13862.288          -      -   9.5  570s
 1537603  3873 infeasible   50      -13862.288          -      -   9.5  575s
 1550864  3850  postponed   55      -13862.288          -      -   9.5  580s
 1563331  3796  postponed   52      -13862.288          -      -   9.5  585s
 1575677  3844 infeasible   50      -13862.288          -      -   9.5  590s
 1587637  3915  postponed   51      -13862.288          -      -   9.4  595s
 1600033  3993 infeasible   47      -13862.288          -      -   9.4  600s

Explored 1601344 nodes (15094529 simplex iterations) in 600.03 seconds (117.10 work units)
Thread count was 8 (of 8 available processors)

Solution count 1: -13862.3 

Time limit reached
Best objective 4.655781836548e+05, best bound -, gap -

User-callback calls 3205308, time in user-callback 31.90 sec
